c File: data_files/evolved_graphs/g0179.col
c
c Auto generated graph
c
p edge 100 1789
e 1 3
e 1 9
e 1 12
e 1 13
e 1 17
e 1 18
e 1 19
e 1 20
e 1 21
e 1 22
e 1 23
e 1 25
e 1 26
e 1 27
e 1 29
e 1 30
e 1 31
e 1 32
e 1 37
e 1 38
e 1 39
e 1 40
e 1 43
e 1 44
e 1 47
e 1 48
e 1 49
e 1 50
e 1 51
e 1 52
e 1 53
e 1 54
e 1 55
e 1 56
e 1 57
e 1 58
e 1 59
e 1 72
e 1 73
e 1 76
e 1 79
e 1 80
e 1 83
e 1 84
e 1 85
e 1 86
e 1 87
e 1 88
e 1 90
e 1 92
e 1 94
e 1 96
e 1 97
e 1 98
e 1 99
e 1 100
e 2 3
e 2 4
e 2 8
e 2 9
e 2 14
e 2 15
e 2 16
e 2 17
e 2 18
e 2 19
e 2 21
e 2 23
e 2 24
e 2 25
e 2 26
e 2 28
e 2 30
e 2 32
e 2 38
e 2 39
e 2 40
e 2 41
e 2 43
e 2 44
e 2 45
e 2 47
e 2 48
e 2 49
e 2 50
e 2 51
e 2 52
e 2 53
e 2 54
e 2 55
e 2 57
e 2 58
e 2 72
e 2 73
e 2 83
e 2 84
e 2 85
e 2 87
e 2 90
e 2 91
e 2 93
e 2 94
e 2 95
e 2 96
e 2 97
e 2 99
e 2 100
e 3 5
e 3 12
e 3 15
e 3 16
e 3 17
e 3 18
e 3 19
e 3 20
e 3 23
e 3 25
e 3 26
e 3 27
e 3 29
e 3 30
e 3 31
e 3 37
e 3 38
e 3 39
e 3 41
e 3 43
e 3 44
e 3 45
e 3 46
e 3 47
e 3 48
e 3 50
e 3 51
e 3 52
e 3 53
e 3 54
e 3 55
e 3 61
e 3 65
e 3 66
e 3 71
e 3 73
e 3 74
e 3 75
e 3 77
e 3 78
e 3 79
e 3 80
e 3 86
e 3 87
e 3 88
e 3 89
e 3 90
e 3 91
e 3 92
e 3 94
e 3 95
e 3 98
e 4 11
e 4 12
e 4 13
e 4 15
e 4 16
e 4 17
e 4 18
e 4 20
e 4 21
e 4 22
e 4 25
e 4 26
e 4 27
e 4 28
e 4 29
e 4 30
e 4 31
e 4 32
e 4 33
e 4 34
e 4 35
e 4 36
e 4 37
e 4 43
e 4 44
e 4 46
e 4 48
e 4 49
e 4 50
e 4 51
e 4 52
e 4 53
e 4 54
e 4 55
e 4 62
e 4 67
e 4 73
e 4 74
e 4 75
e 4 77
e 4 78
e 4 79
e 4 80
e 4 81
e 4 84
e 4 85
e 4 86
e 4 88
e 4 89
e 4 91
e 4 92
e 4 93
e 4 94
e 4 96
e 4 99
e 4 100
e 5 7
e 5 11
e 5 12
e 5 13
e 5 14
e 5 15
e 5 17
e 5 18
e 5 19
e 5 20
e 5 22
e 5 25
e 5 26
e 5 27
e 5 28
e 5 29
e 5 30
e 5 31
e 5 32
e 5 33
e 5 34
e 5 35
e 5 36
e 5 37
e 5 39
e 5 42
e 5 43
e 5 44
e 5 45
e 5 46
e 5 47
e 5 48
e 5 49
e 5 50
e 5 51
e 5 52
e 5 53
e 5 54
e 5 55
e 5 69
e 5 70
e 5 73
e 5 77
e 5 78
e 5 79
e 5 81
e 5 82
e 5 85
e 5 86
e 5 87
e 5 88
e 5 91
e 5 95
e 6 14
e 6 22
e 6 26
e 6 27
e 6 28
e 6 29
e 6 30
e 6 31
e 6 32
e 6 33
e 6 34
e 6 35
e 6 36
e 6 37
e 6 38
e 6 39
e 6 40
e 6 41
e 6 42
e 6 43
e 6 44
e 6 45
e 6 46
e 6 47
e 6 48
e 6 49
e 6 50
e 6 51
e 6 52
e 6 53
e 6 54
e 6 55
e 6 56
e 6 57
e 6 58
e 6 59
e 6 60
e 6 61
e 6 62
e 6 63
e 6 64
e 6 65
e 6 66
e 6 71
e 6 87
e 6 88
e 6 89
e 6 90
e 6 92
e 6 95
e 6 100
e 7 14
e 7 17
e 7 18
e 7 20
e 7 21
e 7 22
e 7 25
e 7 26
e 7 27
e 7 28
e 7 29
e 7 30
e 7 31
e 7 32
e 7 33
e 7 34
e 7 35
e 7 36
e 7 37
e 7 38
e 7 39
e 7 40
e 7 41
e 7 42
e 7 43
e 7 44
e 7 45
e 7 46
e 7 47
e 7 48
e 7 49
e 7 50
e 7 51
e 7 52
e 7 53
e 7 54
e 7 55
e 7 56
e 7 57
e 7 58
e 7 59
e 7 60
e 7 61
e 7 62
e 7 63
e 7 64
e 7 65
e 7 66
e 7 68
e 7 86
e 7 87
e 7 89
e 7 90
e 7 98
e 7 99
e 7 100
e 8 9
e 8 22
e 8 25
e 8 26
e 8 27
e 8 28
e 8 29
e 8 30
e 8 31
e 8 32
e 8 33
e 8 34
e 8 35
e 8 36
e 8 37
e 8 38
e 8 39
e 8 40
e 8 41
e 8 42
e 8 44
e 8 45
e 8 46
e 8 47
e 8 48
e 8 49
e 8 50
e 8 51
e 8 52
e 8 53
e 8 55
e 8 56
e 8 57
e 8 59
e 8 60
e 8 61
e 8 62
e 8 63
e 8 65
e 8 66
e 8 67
e 8 81
e 8 87
e 8 89
e 8 90
e 8 92
e 8 95
e 8 97
e 8 100
e 9 21
e 9 22
e 9 25
e 9 26
e 9 27
e 9 28
e 9 29
e 9 30
e 9 31
e 9 32
e 9 33
e 9 34
e 9 35
e 9 36
e 9 37
e 9 38
e 9 39
e 9 40
e 9 41
e 9 42
e 9 44
e 9 45
e 9 46
e 9 47
e 9 48
e 9 49
e 9 50
e 9 51
e 9 52
e 9 53
e 9 54
e 9 55
e 9 56
e 9 57
e 9 58
e 9 59
e 9 60
e 9 61
e 9 94
e 9 96
e 9 100
e 10 22
e 10 25
e 10 27
e 10 28
e 10 29
e 10 30
e 10 31
e 10 32
e 10 33
e 10 34
e 10 35
e 10 36
e 10 37
e 10 38
e 10 39
e 10 40
e 10 41
e 10 42
e 10 44
e 10 45
e 10 46
e 10 47
e 10 48
e 10 49
e 10 50
e 10 51
e 10 52
e 10 53
e 10 54
e 10 55
e 10 56
e 10 57
e 10 58
e 10 59
e 10 60
e 10 62
e 10 65
e 10 66
e 10 71
e 10 75
e 10 76
e 10 89
e 10 90
e 10 96
e 10 97
e 10 98
e 10 100
e 11 21
e 11 25
e 11 26
e 11 27
e 11 28
e 11 29
e 11 30
e 11 31
e 11 32
e 11 33
e 11 34
e 11 35
e 11 36
e 11 37
e 11 38
e 11 39
e 11 40
e 11 41
e 11 42
e 11 44
e 11 45
e 11 46
e 11 47
e 11 48
e 11 49
e 11 50
e 11 51
e 11 52
e 11 53
e 11 54
e 11 55
e 11 56
e 11 57
e 11 58
e 11 59
e 11 61
e 11 62
e 11 65
e 11 67
e 11 70
e 11 77
e 11 89
e 11 91
e 11 97
e 11 100
e 12 14
e 12 15
e 12 22
e 12 24
e 12 25
e 12 26
e 12 27
e 12 28
e 12 29
e 12 30
e 12 31
e 12 32
e 12 33
e 12 34
e 12 35
e 12 36
e 12 37
e 12 38
e 12 39
e 12 40
e 12 41
e 12 42
e 12 43
e 12 44
e 12 45
e 12 46
e 12 47
e 12 49
e 12 50
e 12 51
e 12 52
e 12 53
e 12 54
e 12 55
e 12 56
e 12 57
e 12 58
e 12 59
e 12 66
e 12 75
e 12 76
e 12 94
e 12 96
e 12 100
e 13 14
e 13 22
e 13 23
e 13 24
e 13 25
e 13 26
e 13 27
e 13 28
e 13 29
e 13 30
e 13 31
e 13 33
e 13 34
e 13 35
e 13 36
e 13 37
e 13 38
e 13 39
e 13 40
e 13 41
e 13 42
e 13 44
e 13 45
e 13 46
e 13 47
e 13 48
e 13 49
e 13 50
e 13 51
e 13 52
e 13 53
e 13 54
e 13 55
e 13 56
e 13 57
e 13 58
e 13 59
e 13 65
e 13 75
e 13 95
e 13 98
e 13 100
e 14 22
e 14 23
e 14 24
e 14 25
e 14 26
e 14 27
e 14 28
e 14 29
e 14 30
e 14 31
e 14 32
e 14 33
e 14 35
e 14 36
e 14 37
e 14 38
e 14 39
e 14 40
e 14 41
e 14 42
e 14 43
e 14 44
e 14 45
e 14 46
e 14 47
e 14 48
e 14 49
e 14 50
e 14 51
e 14 52
e 14 53
e 14 54
e 14 55
e 14 56
e 14 57
e 14 58
e 14 59
e 14 61
e 14 65
e 14 67
e 14 76
e 14 89
e 14 93
e 14 100
e 15 25
e 15 29
e 15 30
e 15 31
e 15 32
e 15 33
e 15 34
e 15 36
e 15 37
e 15 38
e 15 39
e 15 40
e 15 41
e 15 42
e 15 44
e 15 45
e 15 46
e 15 47
e 15 48
e 15 49
e 15 50
e 15 51
e 15 52
e 15 53
e 15 54
e 15 56
e 15 57
e 15 58
e 15 59
e 15 61
e 15 68
e 15 75
e 15 76
e 15 90
e 15 95
e 15 100
e 16 22
e 16 23
e 16 24
e 16 25
e 16 26
e 16 27
e 16 28
e 16 29
e 16 30
e 16 31
e 16 32
e 16 33
e 16 34
e 16 35
e 16 36
e 16 37
e 16 38
e 16 39
e 16 40
e 16 41
e 16 42
e 16 44
e 16 45
e 16 46
e 16 47
e 16 48
e 16 49
e 16 50
e 16 51
e 16 52
e 16 53
e 16 54
e 16 55
e 16 56
e 16 57
e 16 58
e 16 59
e 16 62
e 16 75
e 16 76
e 16 77
e 16 89
e 16 92
e 16 98
e 16 100
e 17 18
e 17 22
e 17 23
e 17 24
e 17 25
e 17 26
e 17 27
e 17 28
e 17 29
e 17 30
e 17 31
e 17 32
e 17 33
e 17 34
e 17 35
e 17 36
e 17 37
e 17 38
e 17 39
e 17 40
e 17 41
e 17 42
e 17 44
e 17 45
e 17 46
e 17 47
e 17 48
e 17 49
e 17 50
e 17 52
e 17 53
e 17 54
e 17 55
e 17 56
e 17 57
e 17 58
e 17 59
e 17 70
e 17 76
e 17 77
e 17 96
e 17 100
e 18 22
e 18 23
e 18 24
e 18 25
e 18 26
e 18 27
e 18 28
e 18 29
e 18 30
e 18 31
e 18 32
e 18 33
e 18 34
e 18 35
e 18 36
e 18 37
e 18 38
e 18 39
e 18 40
e 18 41
e 18 42
e 18 43
e 18 44
e 18 45
e 18 46
e 18 47
e 18 48
e 18 49
e 18 50
e 18 51
e 18 52
e 18 53
e 18 54
e 18 55
e 18 56
e 18 57
e 18 58
e 18 59
e 18 60
e 18 68
e 18 74
e 18 75
e 18 76
e 18 100
e 19 22
e 19 23
e 19 24
e 19 26
e 19 27
e 19 28
e 19 29
e 19 30
e 19 31
e 19 32
e 19 33
e 19 34
e 19 35
e 19 36
e 19 37
e 19 38
e 19 39
e 19 40
e 19 41
e 19 42
e 19 44
e 19 45
e 19 46
e 19 47
e 19 48
e 19 49
e 19 50
e 19 51
e 19 52
e 19 53
e 19 54
e 19 55
e 19 56
e 19 57
e 19 58
e 19 59
e 19 69
e 19 75
e 19 77
e 19 90
e 19 93
e 19 100
e 20 22
e 20 24
e 20 25
e 20 26
e 20 27
e 20 28
e 20 29
e 20 30
e 20 31
e 20 32
e 20 33
e 20 34
e 20 35
e 20 36
e 20 37
e 20 38
e 20 39
e 20 40
e 20 41
e 20 42
e 20 44
e 20 45
e 20 46
e 20 47
e 20 48
e 20 49
e 20 50
e 20 51
e 20 52
e 20 53
e 20 54
e 20 55
e 20 56
e 20 57
e 20 58
e 20 59
e 20 60
e 20 61
e 20 62
e 20 63
e 20 64
e 20 65
e 20 67
e 20 69
e 20 71
e 20 72
e 20 73
e 20 74
e 20 75
e 20 76
e 20 92
e 20 95
e 20 97
e 20 99
e 20 100
e 21 22
e 21 23
e 21 24
e 21 25
e 21 26
e 21 27
e 21 28
e 21 29
e 21 30
e 21 31
e 21 32
e 21 33
e 21 34
e 21 35
e 21 36
e 21 37
e 21 38
e 21 39
e 21 40
e 21 41
e 21 42
e 21 44
e 21 45
e 21 46
e 21 47
e 21 48
e 21 49
e 21 50
e 21 51
e 21 52
e 21 53
e 21 54
e 21 55
e 21 56
e 21 57
e 21 59
e 21 60
e 21 61
e 21 62
e 21 63
e 21 64
e 21 65
e 21 66
e 21 67
e 21 68
e 21 69
e 21 70
e 21 71
e 21 72
e 21 73
e 21 74
e 21 76
e 21 77
e 21 93
e 21 100
e 22 25
e 22 26
e 22 27
e 22 28
e 22 29
e 22 30
e 22 31
e 22 32
e 22 33
e 22 34
e 22 35
e 22 36
e 22 37
e 22 38
e 22 39
e 22 40
e 22 41
e 22 42
e 22 44
e 22 45
e 22 46
e 22 47
e 22 48
e 22 49
e 22 50
e 22 51
e 22 52
e 22 53
e 22 54
e 22 55
e 22 56
e 22 57
e 22 58
e 22 59
e 22 60
e 22 61
e 22 62
e 22 63
e 22 64
e 22 65
e 22 66
e 22 67
e 22 68
e 22 69
e 22 71
e 22 72
e 22 75
e 22 76
e 22 77
e 22 100
e 23 25
e 23 26
e 23 27
e 23 28
e 23 29
e 23 30
e 23 31
e 23 32
e 23 33
e 23 34
e 23 35
e 23 36
e 23 37
e 23 38
e 23 39
e 23 40
e 23 41
e 23 42
e 23 43
e 23 44
e 23 45
e 23 47
e 23 48
e 23 49
e 23 50
e 23 51
e 23 52
e 23 53
e 23 54
e 23 55
e 23 56
e 23 57
e 23 58
e 23 59
e 23 60
e 23 61
e 23 62
e 23 63
e 23 64
e 23 65
e 23 66
e 23 67
e 23 69
e 23 70
e 23 71
e 23 72
e 23 73
e 23 74
e 23 76
e 23 77
e 23 90
e 23 92
e 23 97
e 23 99
e 23 100
e 24 25
e 24 26
e 24 27
e 24 28
e 24 29
e 24 30
e 24 31
e 24 32
e 24 33
e 24 34
e 24 35
e 24 36
e 24 37
e 24 38
e 24 39
e 24 40
e 24 41
e 24 42
e 24 44
e 24 45
e 24 46
e 24 47
e 24 48
e 24 49
e 24 50
e 24 51
e 24 52
e 24 53
e 24 54
e 24 55
e 24 56
e 24 57
e 24 59
e 24 60
e 24 61
e 24 62
e 24 63
e 24 64
e 24 65
e 24 66
e 24 67
e 24 75
e 24 76
e 24 96
e 24 100
e 25 75
e 25 76
e 25 79
e 25 80
e 25 81
e 25 82
e 25 83
e 25 84
e 25 85
e 25 86
e 25 100
e 26 70
e 26 76
e 26 77
e 26 79
e 26 80
e 26 81
e 26 82
e 26 83
e 26 84
e 26 85
e 26 86
e 27 43
e 27 79
e 27 80
e 27 81
e 27 82
e 27 83
e 27 84
e 27 85
e 27 86
e 27 100
e 28 79
e 28 80
e 28 81
e 28 82
e 28 83
e 28 84
e 28 85
e 28 86
e 28 100
e 29 43
e 29 70
e 29 75
e 29 77
e 29 79
e 29 80
e 29 81
e 29 82
e 29 83
e 29 84
e 29 85
e 29 86
e 29 100
e 30 43
e 30 54
e 30 79
e 30 80
e 30 81
e 30 82
e 30 83
e 30 84
e 30 85
e 30 86
e 30 100
e 31 43
e 31 100
e 32 43
e 32 69
e 32 100
e 33 70
e 33 95
e 33 100
e 34 77
e 34 95
e 34 100
e 35 95
e 35 100
e 36 72
e 36 95
e 36 100
e 37 79
e 37 95
e 37 96
e 37 97
e 37 98
e 37 99
e 37 100
e 38 95
e 38 96
e 38 97
e 38 98
e 38 99
e 38 100
e 39 69
e 39 80
e 39 95
e 39 96
e 39 97
e 39 98
e 39 99
e 39 100
e 40 96
e 40 97
e 40 98
e 40 99
e 40 100
e 41 62
e 41 64
e 41 65
e 41 66
e 41 67
e 41 68
e 41 84
e 41 85
e 41 88
e 41 89
e 41 90
e 41 93
e 41 96
e 41 97
e 41 98
e 41 99
e 41 100
e 42 62
e 42 63
e 42 64
e 42 65
e 42 78
e 42 81
e 42 85
e 42 86
e 42 88
e 42 89
e 42 91
e 42 95
e 42 96
e 42 97
e 42 98
e 42 99
e 42 100
e 43 62
e 43 63
e 43 64
e 43 81
e 43 85
e 43 88
e 43 91
e 43 95
e 43 96
e 43 97
e 43 98
e 43 100
e 44 62
e 44 64
e 44 70
e 44 79
e 44 81
e 44 85
e 44 87
e 44 88
e 44 91
e 44 93
e 44 94
e 44 96
e 44 97
e 44 98
e 44 99
e 44 100
e 45 66
e 45 67
e 45 69
e 45 70
e 45 78
e 45 81
e 45 85
e 45 88
e 45 93
e 45 96
e 45 97
e 45 98
e 45 99
e 45 100
e 46 62
e 46 63
e 46 65
e 46 67
e 46 70
e 46 81
e 46 86
e 46 91
e 46 94
e 46 95
e 46 96
e 46 97
e 46 98
e 46 99
e 46 100
e 47 62
e 47 63
e 47 66
e 47 67
e 47 68
e 47 81
e 47 84
e 47 86
e 47 87
e 47 93
e 47 94
e 47 95
e 48 62
e 48 64
e 48 66
e 48 67
e 48 76
e 48 80
e 48 81
e 48 82
e 48 83
e 48 88
e 48 89
e 48 90
e 48 92
e 48 93
e 48 94
e 49 63
e 49 64
e 49 67
e 49 68
e 49 81
e 49 82
e 49 83
e 49 85
e 49 87
e 49 88
e 49 90
e 49 91
e 49 93
e 50 65
e 50 67
e 50 69
e 50 72
e 50 74
e 50 75
e 50 76
e 50 77
e 50 78
e 50 81
e 50 82
e 50 83
e 50 84
e 50 85
e 50 86
e 50 87
e 50 89
e 50 90
e 50 91
e 50 92
e 50 93
e 50 94
e 50 95
e 51 62
e 51 63
e 51 67
e 51 74
e 51 75
e 51 76
e 51 77
e 51 78
e 51 80
e 51 81
e 51 83
e 51 85
e 51 86
e 51 87
e 51 88
e 51 90
e 51 92
e 51 93
e 51 94
e 51 95
e 52 71
e 52 78
e 52 84
e 52 97
e 52 98
e 52 99
e 52 100
e 53 71
e 53 81
e 53 82
e 53 97
e 53 99
e 53 100
e 54 55
e 54 70
e 54 71
e 54 78
e 54 79
e 54 80
e 54 81
e 54 82
e 54 83
e 54 84
e 54 85
e 54 86
e 54 87
e 54 88
e 54 89
e 54 91
e 55 70
e 55 78
e 55 79
e 55 80
e 55 81
e 55 82
e 55 83
e 55 84
e 55 85
e 55 86
e 55 87
e 55 88
e 55 89
e 55 91
e 56 71
e 56 78
e 56 79
e 56 80
e 56 81
e 56 82
e 56 83
e 56 85
e 56 86
e 56 87
e 56 88
e 56 89
e 56 90
e 56 91
e 57 78
e 57 79
e 57 80
e 57 81
e 57 82
e 57 84
e 57 85
e 57 86
e 57 87
e 57 88
e 57 89
e 57 90
e 57 91
e 58 78
e 58 79
e 58 80
e 58 81
e 58 82
e 58 83
e 58 84
e 58 85
e 58 86
e 58 87
e 58 88
e 58 89
e 58 90
e 58 91
e 58 100
e 59 72
e 59 78
e 59 79
e 59 80
e 59 81
e 59 82
e 59 83
e 59 84
e 59 85
e 59 86
e 59 87
e 59 88
e 59 89
e 59 90
e 59 91
e 60 78
e 60 79
e 60 80
e 60 81
e 60 82
e 60 83
e 60 84
e 60 85
e 60 86
e 60 87
e 60 88
e 60 89
e 60 90
e 60 91
e 61 78
e 61 80
e 61 81
e 61 82
e 61 83
e 61 84
e 61 85
e 61 86
e 61 87
e 61 88
e 61 89
e 61 90
e 61 91
e 61 96
e 62 78
e 62 79
e 62 80
e 62 81
e 62 82
e 62 83
e 62 84
e 62 85
e 62 87
e 62 88
e 62 89
e 62 90
e 62 91
e 62 100
e 63 78
e 63 79
e 63 80
e 63 81
e 63 82
e 63 83
e 63 84
e 63 85
e 63 86
e 63 87
e 63 88
e 63 89
e 63 90
e 63 91
e 64 78
e 64 79
e 64 80
e 64 81
e 64 82
e 64 83
e 64 84
e 64 85
e 64 86
e 64 87
e 64 88
e 64 89
e 64 90
e 64 91
e 65 78
e 65 79
e 65 80
e 65 81
e 65 82
e 65 83
e 65 84
e 65 85
e 65 86
e 65 87
e 65 88
e 65 90
e 65 91
e 66 72
e 66 78
e 66 79
e 66 80
e 66 81
e 66 82
e 66 83
e 66 84
e 66 85
e 66 86
e 66 87
e 66 88
e 66 90
e 66 91
e 66 100
e 67 78
e 67 79
e 67 81
e 67 82
e 67 83
e 67 84
e 67 85
e 67 86
e 67 87
e 67 88
e 67 89
e 67 90
e 67 91
e 68 78
e 68 79
e 68 80
e 68 81
e 68 82
e 68 83
e 68 84
e 68 85
e 68 86
e 68 87
e 68 89
e 68 90
e 68 91
e 69 79
e 69 80
e 69 81
e 69 82
e 69 83
e 69 85
e 69 91
e 70 79
e 70 80
e 70 81
e 70 82
e 70 83
e 70 84
e 70 85
e 70 86
e 70 87
e 70 88
e 70 95
e 70 98
e 71 84
e 71 85
e 71 86
e 71 87
e 71 88
e 71 89
e 71 90
e 71 92
e 71 93
e 71 94
e 71 95
e 71 97
e 71 99
e 72 84
e 72 85
e 72 86
e 72 87
e 72 88
e 72 89
e 72 90
e 72 91
e 72 92
e 72 93
e 72 94
e 72 96
e 72 98
e 73 79
e 73 84
e 73 85
e 73 86
e 73 88
e 73 89
e 73 90
e 73 91
e 73 92
e 73 93
e 73 94
e 73 96
e 73 98
e 73 99
e 74 78
e 74 79
e 74 80
e 74 81
e 74 82
e 74 83
e 74 86
e 74 89
e 74 91
e 74 96
e 74 99
e 75 78
e 75 79
e 75 80
e 75 81
e 75 82
e 75 83
e 75 95
e 75 97
e 75 100
e 76 78
e 76 79
e 76 80
e 76 81
e 76 82
e 76 83
e 76 88
e 76 93
e 76 94
e 76 96
e 76 98
e 76 99
e 77 78
e 77 79
e 77 80
e 77 81
e 77 82
e 77 84
e 77 88
e 77 93
e 77 94
e 77 97
e 77 98
e 77 99
e 78 83
e 78 90
e 79 83
e 79 84
e 79 87
e 79 88
e 79 93
e 79 96
e 80 83
e 80 85
e 80 90
e 80 91
e 81 83
e 81 86
e 81 90
e 82 83
e 83 88
e 83 91
e 83 94
e 83 96
e 85 96
e 86 94
e 89 91
e 90 100
e 91 96
